NAME : instances/clustered-mixed-tsp/instance-13.tsp
COMMENT : No Comment
TYPE : TSP
DIMENSION: 44
EDGE_WEIGHT_TYPE : EUC_2D
NODE_COORD_SECTION
1 1248 -325 
2 880 -249 
3 628 -29 
4 792 231 
5 496 -28 
6 700 291 
7 1092 -341 
8 440 921 
9 -90 20 
10 880 -165 
11 1196 -109 
12 450 160 
13 4 -200 
14 1248 -221 
15 1052 327 
16 1016 -65 
17 29 1201 
18 -200 1160 
19 196 680 
20 412 504 
21 280 848 
22 385 1157 
23 -108 604 
24 92 500 
25 -208 948 
26 1056 -41 
27 81 709 
28 384 128 
29 940 -261 
30 752 183 
31 1148 291 
32 648 83 
33 784 -273 
34 704 127 
35 620 407 
36 196 -172 
37 176 876 
38 908 143 
39 1068 665 
40 1232 183 
41 396 1125 
42 632 291 
43 1024 -9 
44 280 500 
EOF
